.Version 9.10.4 of ABINIT

 ABINIT is a project of the Universite Catholique de Louvain,
 Corning Inc. and other collaborators, see ~abinit/doc/developers/contributors.txt .
 acknowledgments of the ABINIT effort.

.Starting date : Mon 27 Jan 2025.
- ( at 02h42 )

- input  file    -> bandcalc.in
- output file    -> bandcalc.abo
- root for input  files -> bandcalci
- root for output files -> bandcalco

 DATASET    1 : space group Fm -3 m (#225); Bravais cF (face-center cubic)
     intxc =       0    ionmov =       0      iscf =       7    lmnmax =       3
     lnmax =       3     mgfft =      36  mpssoang =       3    mqgrid =    3001
     natom =       1  nloc_mem =       1    nspden =       1   nspinor =       1
    nsppol =       1      nsym =      48    n1xccc =       0    ntypat =       1
    occopt =       1   xclevel =       2
-    mband =           6        mffmem =           1         mkmem =          28
       mpw =        1714          nfft =       46656          nkpt =          28
  Rough estimation (10% accuracy) of disk space for files :

[...]

 DATASET    3 : space group Fm -3 m (#225); Bravais cF (face-center cubic)
     intxc =       0    ionmov =       0      iscf =      -2    lmnmax =       3
     lnmax =       3     mgfft =      36  mpssoang =       3    mqgrid =    3001
     natom =       1  nloc_mem =       1    nspden =       1   nspinor =       1
    nsppol =       1      nsym =      48    n1xccc =       0    ntypat =       1
    occopt =       1   xclevel =       2
-    mband =          20        mffmem =           1         mkmem =          21
       mpw =        1708          nfft =       46656          nkpt =          21
  Rough estimation (10% accuracy) of disk space for files :

------------- Echo of variables that govern the present computation ------------
-
- outvars: echo of selected default values
-   iomode0 =  0 , fftalg0 =112 , wfoptalg0 =  0
-
- outvars: echo of global parameters not present in the input file
-  max_nthreads =    0
-
 -outvars: echo values of preprocessed input variables --------
            acell      1.0438847158E+01  1.0438847158E+01  1.0438847158E+01 Bohr
              amu      4.00780000E+01
             ecut      2.50000000E+01 Hartree
           enunit1          0
           enunit2          1
           enunit3          1
-          fftalg         112
           getden1          0
           getden2         -1
           getden3         -1
             iscf1          7
             iscf2         -2
             iscf3         -2
           istwfk2       2    0    0    0    0    0    0    0    0    0
                         0    0    0    0    0    0    0    0    0    0
                         0    0    0    0    0    0    0    0    0    0
                         0    0    0    0    0    0    0    0    0    0
                         0    0    0    0    0    0    0    0    0    0
           istwfk3       0    0    0    0    0    0    0    0    0    0
                         0    0    0    0    0    0    0    0    0    0
                         5
                       outvar_i_n : Printing only first  50 k-points.
              ixc          11
           jdtset        1    2    3
              kpt1    -8.33333333E-02 -1.66666667E-01  0.00000000E+00
                      -8.33333333E-02 -3.33333333E-01  0.00000000E+00
                      -1.66666667E-01 -2.50000000E-01  0.00000000E+00
                      -8.33333333E-02 -2.50000000E-01  8.33333333E-02
                      -8.33333333E-02  5.00000000E-01  0.00000000E+00
                      -1.66666667E-01 -4.16666667E-01  0.00000000E+00
                      -8.33333333E-02 -4.16666667E-01  8.33333333E-02
                      -2.50000000E-01 -3.33333333E-01  0.00000000E+00
                      -1.66666667E-01 -3.33333333E-01  8.33333333E-02
                      -8.33333333E-02 -3.33333333E-01  1.66666667E-01
                      -8.33333333E-02  3.33333333E-01  0.00000000E+00
                      -1.66666667E-01  4.16666667E-01  0.00000000E+00
                      -2.50000000E-01  5.00000000E-01  0.00000000E+00
                      -1.66666667E-01  5.00000000E-01  8.33333333E-02
                      -3.33333333E-01 -4.16666667E-01  0.00000000E+00
                      -2.50000000E-01 -4.16666667E-01  8.33333333E-02
                      -1.66666667E-01 -4.16666667E-01  1.66666667E-01
                      -8.33333333E-02 -4.16666667E-01  2.50000000E-01
                      -8.33333333E-02  1.66666667E-01  0.00000000E+00
                      -1.66666667E-01  2.50000000E-01  0.00000000E+00
                      -2.50000000E-01  3.33333333E-01  0.00000000E+00
                      -3.33333333E-01  4.16666667E-01  0.00000000E+00
                      -4.16666667E-01  5.00000000E-01  0.00000000E+00
                      -3.33333333E-01  5.00000000E-01  8.33333333E-02
                      -2.50000000E-01  5.00000000E-01  1.66666667E-01
                      -8.33333333E-02  0.00000000E+00  0.00000000E+00
                      -2.50000000E-01  0.00000000E+00  0.00000000E+00
                      -4.16666667E-01  0.00000000E+00  0.00000000E+00
              kpt2     0.00000000E+00  0.00000000E+00  0.00000000E+00
                       7.35294118E-03  0.00000000E+00  7.35294118E-03
                       1.47058824E-02  0.00000000E+00  1.47058824E-02
                       2.20588235E-02  0.00000000E+00  2.20588235E-02
                       2.94117647E-02  0.00000000E+00  2.94117647E-02
                       3.67647059E-02  0.00000000E+00  3.67647059E-02
                       4.41176471E-02  0.00000000E+00  4.41176471E-02
                       5.14705882E-02  0.00000000E+00  5.14705882E-02
                       5.88235294E-02  0.00000000E+00  5.88235294E-02
                       6.61764706E-02  0.00000000E+00  6.61764706E-02
                       7.35294118E-02  0.00000000E+00  7.35294118E-02
                       8.08823529E-02  0.00000000E+00  8.08823529E-02
                       8.82352941E-02  0.00000000E+00  8.82352941E-02
                       9.55882353E-02  0.00000000E+00  9.55882353E-02
                       1.02941176E-01  0.00000000E+00  1.02941176E-01
                       1.10294118E-01  0.00000000E+00  1.10294118E-01
                       1.17647059E-01  0.00000000E+00  1.17647059E-01
                       1.25000000E-01  0.00000000E+00  1.25000000E-01
                       1.32352941E-01  0.00000000E+00  1.32352941E-01
                       1.39705882E-01  0.00000000E+00  1.39705882E-01
                       1.47058824E-01  0.00000000E+00  1.47058824E-01
                       1.54411765E-01  0.00000000E+00  1.54411765E-01
                       1.61764706E-01  0.00000000E+00  1.61764706E-01
                       1.69117647E-01  0.00000000E+00  1.69117647E-01
                       1.76470588E-01  0.00000000E+00  1.76470588E-01
                       1.83823529E-01  0.00000000E+00  1.83823529E-01
                       1.91176471E-01  0.00000000E+00  1.91176471E-01
                       1.98529412E-01  0.00000000E+00  1.98529412E-01
                       2.05882353E-01  0.00000000E+00  2.05882353E-01
                       2.13235294E-01  0.00000000E+00  2.13235294E-01
                       2.20588235E-01  0.00000000E+00  2.20588235E-01
                       2.27941176E-01  0.00000000E+00  2.27941176E-01
                       2.35294118E-01  0.00000000E+00  2.35294118E-01
                       2.42647059E-01  0.00000000E+00  2.42647059E-01
                       2.50000000E-01  0.00000000E+00  2.50000000E-01
                       2.57352941E-01  0.00000000E+00  2.57352941E-01
                       2.64705882E-01  0.00000000E+00  2.64705882E-01
                       2.72058824E-01  0.00000000E+00  2.72058824E-01
                       2.79411765E-01  0.00000000E+00  2.79411765E-01
                       2.86764706E-01  0.00000000E+00  2.86764706E-01
                       2.94117647E-01  0.00000000E+00  2.94117647E-01
                       3.01470588E-01  0.00000000E+00  3.01470588E-01
                       3.08823529E-01  0.00000000E+00  3.08823529E-01
                       3.16176471E-01  0.00000000E+00  3.16176471E-01
                       3.23529412E-01  0.00000000E+00  3.23529412E-01
                       3.30882353E-01  0.00000000E+00  3.30882353E-01
                       3.38235294E-01  0.00000000E+00  3.38235294E-01
                       3.45588235E-01  0.00000000E+00  3.45588235E-01
                       3.52941176E-01  0.00000000E+00  3.52941176E-01
                       3.60294118E-01  0.00000000E+00  3.60294118E-01
              kpt3     6.75000000E-01  2.50000000E-01  6.74000000E-01
                       6.66250000E-01  2.37500000E-01  6.65300000E-01
                       6.57500000E-01  2.25000000E-01  6.56600000E-01
                       6.48750000E-01  2.12500000E-01  6.47900000E-01
                       6.40000000E-01  2.00000000E-01  6.39200000E-01
                       6.31250000E-01  1.87500000E-01  6.30500000E-01
                       6.22500000E-01  1.75000000E-01  6.21800000E-01
                       6.13750000E-01  1.62500000E-01  6.13100000E-01
                       6.05000000E-01  1.50000000E-01  6.04400000E-01
                       5.96250000E-01  1.37500000E-01  5.95700000E-01
                       5.87500000E-01  1.25000000E-01  5.87000000E-01
                       5.78750000E-01  1.12500000E-01  5.78300000E-01
                       5.70000000E-01  1.00000000E-01  5.69600000E-01
                       5.61250000E-01  8.75000000E-02  5.60900000E-01
                       5.52500000E-01  7.50000000E-02  5.52200000E-01
                       5.43750000E-01  6.25000000E-02  5.43500000E-01
                       5.35000000E-01  5.00000000E-02  5.34800000E-01
                       5.26250000E-01  3.75000000E-02  5.26100000E-01
                       5.17500000E-01  2.50000000E-02  5.17400000E-01
                       5.08750000E-01  1.25000000E-02  5.08700000E-01
                       5.00000000E-01  0.00000000E+00  5.00000000E-01
                       outvar_i_n : Printing only first  50 k-points.
           kptopt1          1
           kptopt2         -9
           kptopt3         -1
         kptrlatt        6   -6    6     -6    6    6     -6   -6    6
          kptrlen1     6.26330829E+01
          kptrlen2     3.00000000E+01
          kptrlen3     3.00000000E+01
P           mkmem1         28
P           mkmem2        401
P           mkmem3         21
            natom           1
            nband1          6
            nband2         20
            nband3         20
           nbdbuf1          0
           nbdbuf2          2
           nbdbuf3          2
           ndtset           3
            ngfft          36      36      36
             nkpt1         28
             nkpt2        401
             nkpt3         21
            nstep         200
             nsym          48
           ntypat           1
              occ      2.000000  2.000000  2.000000  2.000000  2.000000  0.000000
            rprim      0.0000000000E+00  5.0000000000E-01  5.0000000000E-01
[...]
   8.56584    8.78413    9.77460   10.85105   11.05821   14.90759   15.83784   21.43887
  22.58501   24.65160   24.92195   26.19632
 kpt#  13, nband= 20, wtk=  1.00000, kpt=  0.5700  0.1000  0.5696 (reduced coord)
 -37.04853  -18.57119  -18.50056  -18.49292    4.04685    4.99318    5.45739    8.21285
   8.57608    8.75244    9.87052   10.83616   10.97369   14.89896   15.70231   21.54190
  22.79641   24.74992   24.96329   26.16689
 kpt#  14, nband= 20, wtk=  1.00000, kpt=  0.5613  0.0875  0.5609 (reduced coord)
 -37.04849  -18.57217  -18.49929  -18.49339    4.03161    4.99252    5.46435    8.26005
   8.58555    8.72360    9.96624   10.81850   10.89594   14.87954   15.58941   21.63965
  23.00627   24.84367   25.00030   26.07406
 kpt#  15, nband= 20, wtk=  1.00000, kpt=  0.5525  0.0750  0.5522 (reduced coord)
 -37.04848  -18.57303  -18.49817  -18.49379    4.01825    4.99128    5.47080    8.30323
   8.59424    8.69792   10.06036   10.79737   10.82581   14.84885   15.50094   21.73047
  23.21288   24.93136   25.03444   25.89489
 kpt#  16, nband= 20, wtk=  1.00000, kpt=  0.5438  0.0625  0.5435 (reduced coord)
 -37.04846  -18.57377  -18.49720  -18.49414    4.00683    4.98977    5.47655    8.34153
   8.60214    8.67574   10.15152   10.76399   10.77246   14.80906   15.43630   21.81250
  23.41366   25.01137   25.06738   25.75511
 kpt#  17, nband= 20, wtk=  1.00000, kpt=  0.5350  0.0500  0.5348 (reduced coord)
 -37.04847  -18.57439  -18.49640  -18.49443    3.99739    4.98823    5.48145    8.37408
   8.60914    8.65726   10.23827   10.71186   10.74285   14.76498   15.39213   21.88370
  23.60463   25.08202   25.10091   25.63533
 kpt#  18, nband= 20, wtk=  1.00000, kpt=  0.5263  0.0375  0.5261 (reduced coord)
 -37.04846  -18.57487  -18.49576  -18.49465    3.99001    4.98684    5.48538    8.40012
   8.61511    8.64272   10.31900   10.67003   10.70879   14.72303   15.36364   21.94197
  23.77922   25.13700   25.14201   25.52911
 kpt#  19, nband= 20, wtk=  1.00000, kpt=  0.5175  0.0250  0.5174 (reduced coord)
 -37.04849  -18.57521  -18.49531  -18.49481    3.98472    4.98572    5.48825    8.41905
   8.61975    8.63221   10.39120   10.63942   10.67099   14.68885   15.34616   21.98533
  23.92644   25.17769   25.19124   25.43486
 kpt#  20, nband= 20, wtk=  1.00000, kpt=  0.5088  0.0125  0.5087 (reduced coord)
 -37.04849  -18.57542  -18.49504  -18.49491    3.98153    4.98503    5.49000    8.43053
   8.62273    8.62588   10.44963   10.62074   10.63381   14.66670   15.33703   22.01210
  24.02911   25.22469   25.23313   25.35557
 kpt#  21, nband= 20, wtk=  1.00000, kpt=  0.5000  0.0000  0.5000 (reduced coord)
 -37.04860  -18.57549  -18.49495  -18.49495    3.98045    4.98477    5.49058    8.43421
   8.62360    8.62360   10.47601   10.61444   10.61444   14.65897   15.33406   22.02115
  24.06675   25.26745   25.27467   25.30075

== END DATASET(S) ==============================================================

 -outvars: echo values of variables after computation  --------
            acell      1.0438847158E+01  1.0438847158E+01  1.0438847158E+01 Bohr
              amu      4.00780000E+01
             ecut      2.50000000E+01 Hartree
           enunit1          0
           enunit2          1
           enunit3          1
           etotal1    -3.6747685637E+01
            fcart1    -0.0000000000E+00 -0.0000000000E+00 -0.0000000000E+00
-          fftalg         112
           getden1          0
           getden2         -1
           getden3         -1
             iscf1          7
             iscf2         -2
             iscf3         -2
           istwfk2       2    0    0    0    0    0    0    0    0    0
                         0    0    0    0    0    0    0    0    0    0
                         0    0    0    0    0    0    0    0    0    0
                         0    0    0    0    0    0    0    0    0    0
                         0    0    0    0    0    0    0    0    0    0
           istwfk3       0    0    0    0    0    0    0    0    0    0
                         0    0    0    0    0    0    0    0    0    0
                         5
                       outvar_i_n : Printing only first  50 k-points.
              ixc          11
           jdtset        1    2    3
              kpt1    -8.33333333E-02 -1.66666667E-01  0.00000000E+00
                      -8.33333333E-02 -3.33333333E-01  0.00000000E+00
                      -1.66666667E-01 -2.50000000E-01  0.00000000E+00
                      -8.33333333E-02 -2.50000000E-01  8.33333333E-02
                      -8.33333333E-02  5.00000000E-01  0.00000000E+00
                      -1.66666667E-01 -4.16666667E-01  0.00000000E+00
                      -8.33333333E-02 -4.16666667E-01  8.33333333E-02
                      -2.50000000E-01 -3.33333333E-01  0.00000000E+00
                      -1.66666667E-01 -3.33333333E-01  8.33333333E-02
                      -8.33333333E-02 -3.33333333E-01  1.66666667E-01
                      -8.33333333E-02  3.33333333E-01  0.00000000E+00
                      -1.66666667E-01  4.16666667E-01  0.00000000E+00
                      -2.50000000E-01  5.00000000E-01  0.00000000E+00
                      -1.66666667E-01  5.00000000E-01  8.33333333E-02
                      -3.33333333E-01 -4.16666667E-01  0.00000000E+00
                      -2.50000000E-01 -4.16666667E-01  8.33333333E-02
                      -1.66666667E-01 -4.16666667E-01  1.66666667E-01
                      -8.33333333E-02 -4.16666667E-01  2.50000000E-01
                      -8.33333333E-02  1.66666667E-01  0.00000000E+00
                      -1.66666667E-01  2.50000000E-01  0.00000000E+00
                      -2.50000000E-01  3.33333333E-01  0.00000000E+00
                      -3.33333333E-01  4.16666667E-01  0.00000000E+00
                      -4.16666667E-01  5.00000000E-01  0.00000000E+00
                      -3.33333333E-01  5.00000000E-01  8.33333333E-02
                      -2.50000000E-01  5.00000000E-01  1.66666667E-01
                      -8.33333333E-02  0.00000000E+00  0.00000000E+00
                      -2.50000000E-01  0.00000000E+00  0.00000000E+00
                      -4.16666667E-01  0.00000000E+00  0.00000000E+00
              kpt2     0.00000000E+00  0.00000000E+00  0.00000000E+00
                       7.35294118E-03  0.00000000E+00  7.35294118E-03
                       1.47058824E-02  0.00000000E+00  1.47058824E-02
                       2.20588235E-02  0.00000000E+00  2.20588235E-02
                       2.94117647E-02  0.00000000E+00  2.94117647E-02
                       3.67647059E-02  0.00000000E+00  3.67647059E-02
                       4.41176471E-02  0.00000000E+00  4.41176471E-02
                       5.14705882E-02  0.00000000E+00  5.14705882E-02
                       5.88235294E-02  0.00000000E+00  5.88235294E-02
                       6.61764706E-02  0.00000000E+00  6.61764706E-02
                       7.35294118E-02  0.00000000E+00  7.35294118E-02
                       8.08823529E-02  0.00000000E+00  8.08823529E-02
                       8.82352941E-02  0.00000000E+00  8.82352941E-02
                       9.55882353E-02  0.00000000E+00  9.55882353E-02
                       1.02941176E-01  0.00000000E+00  1.02941176E-01
                       1.10294118E-01  0.00000000E+00  1.10294118E-01
                       1.17647059E-01  0.00000000E+00  1.17647059E-01
                       1.25000000E-01  0.00000000E+00  1.25000000E-01
                       1.32352941E-01  0.00000000E+00  1.32352941E-01
                       1.39705882E-01  0.00000000E+00  1.39705882E-01
                       1.47058824E-01  0.00000000E+00  1.47058824E-01
                       1.54411765E-01  0.00000000E+00  1.54411765E-01
                       1.61764706E-01  0.00000000E+00  1.61764706E-01
                       1.69117647E-01  0.00000000E+00  1.69117647E-01
                       1.76470588E-01  0.00000000E+00  1.76470588E-01
                       1.83823529E-01  0.00000000E+00  1.83823529E-01
                       1.91176471E-01  0.00000000E+00  1.91176471E-01
                       1.98529412E-01  0.00000000E+00  1.98529412E-01
                       2.05882353E-01  0.00000000E+00  2.05882353E-01
                       2.13235294E-01  0.00000000E+00  2.13235294E-01
                       2.20588235E-01  0.00000000E+00  2.20588235E-01
                       2.27941176E-01  0.00000000E+00  2.27941176E-01
                       2.35294118E-01  0.00000000E+00  2.35294118E-01
                       2.42647059E-01  0.00000000E+00  2.42647059E-01
                       2.50000000E-01  0.00000000E+00  2.50000000E-01
                       2.57352941E-01  0.00000000E+00  2.57352941E-01
                       2.64705882E-01  0.00000000E+00  2.64705882E-01
                       2.72058824E-01  0.00000000E+00  2.72058824E-01
                       2.79411765E-01  0.00000000E+00  2.79411765E-01
                       2.86764706E-01  0.00000000E+00  2.86764706E-01
                       2.94117647E-01  0.00000000E+00  2.94117647E-01
                       3.01470588E-01  0.00000000E+00  3.01470588E-01
                       3.08823529E-01  0.00000000E+00  3.08823529E-01
                       3.16176471E-01  0.00000000E+00  3.16176471E-01
                       3.23529412E-01  0.00000000E+00  3.23529412E-01
                       3.30882353E-01  0.00000000E+00  3.30882353E-01
                       3.38235294E-01  0.00000000E+00  3.38235294E-01
                       3.45588235E-01  0.00000000E+00  3.45588235E-01
                       3.52941176E-01  0.00000000E+00  3.52941176E-01
                       3.60294118E-01  0.00000000E+00  3.60294118E-01
              kpt3     6.75000000E-01  2.50000000E-01  6.74000000E-01
                       6.66250000E-01  2.37500000E-01  6.65300000E-01
                       6.57500000E-01  2.25000000E-01  6.56600000E-01
                       6.48750000E-01  2.12500000E-01  6.47900000E-01
                       6.40000000E-01  2.00000000E-01  6.39200000E-01
                       6.31250000E-01  1.87500000E-01  6.30500000E-01
                       6.22500000E-01  1.75000000E-01  6.21800000E-01
                       6.13750000E-01  1.62500000E-01  6.13100000E-01
                       6.05000000E-01  1.50000000E-01  6.04400000E-01
                       5.96250000E-01  1.37500000E-01  5.95700000E-01
                       5.87500000E-01  1.25000000E-01  5.87000000E-01
                       5.78750000E-01  1.12500000E-01  5.78300000E-01
                       5.70000000E-01  1.00000000E-01  5.69600000E-01
                       5.61250000E-01  8.75000000E-02  5.60900000E-01
                       5.52500000E-01  7.50000000E-02  5.52200000E-01
                       5.43750000E-01  6.25000000E-02  5.43500000E-01
                       5.35000000E-01  5.00000000E-02  5.34800000E-01
                       5.26250000E-01  3.75000000E-02  5.26100000E-01
                       5.17500000E-01  2.50000000E-02  5.17400000E-01
                       5.08750000E-01  1.25000000E-02  5.08700000E-01
                       5.00000000E-01  0.00000000E+00  5.00000000E-01
                       outvar_i_n : Printing only first  50 k-points.
           kptopt1          1
           kptopt2         -9
           kptopt3         -1
         kptrlatt        6   -6    6     -6    6    6     -6   -6    6
          kptrlen1     6.26330829E+01
          kptrlen2     3.00000000E+01
          kptrlen3     3.00000000E+01
P           mkmem1         28
P           mkmem2        401
P           mkmem3         21
            natom           1
            nband1          6
            nband2         20
            nband3         20
           nbdbuf1          0
           nbdbuf2          2
           nbdbuf3          2
           ndtset           3
            ngfft          36      36      36
             nkpt1         28
             nkpt2        401
             nkpt3         21
            nstep         200
             nsym          48
           ntypat           1
              occ      2.000000  2.000000  2.000000  2.000000  2.000000  0.000000
            rprim      0.0000000000E+00  5.0000000000E-01  5.0000000000E-01
                       5.0000000000E-01  0.0000000000E+00  5.0000000000E-01
                       5.0000000000E-01  5.0000000000E-01  0.0000000000E+00
           shiftk      5.00000000E-01  5.00000000E-01  5.00000000E-01
          spgroup         225
           strten1     4.1249786860E-07  4.1249786860E-07  4.1249786860E-07
                       0.0000000000E+00  0.0000000000E+00  0.0000000000E+00
           symrel      1  0  0   0  1  0   0  0  1      -1  0  0   0 -1  0   0  0 -1
                       0 -1  1   0 -1  0   1 -1  0       0  1 -1   0  1  0  -1  1  0
                      -1  0  0  -1  0  1  -1  1  0       1  0  0   1  0 -1   1 -1  0
                       0  1 -1   1  0 -1   0  0 -1       0 -1  1  -1  0  1   0  0  1
                      -1  0  0  -1  1  0  -1  0  1       1  0  0   1 -1  0   1  0 -1
                       0 -1  1   1 -1  0   0 -1  0       0  1 -1  -1  1  0   0  1  0
                       1  0  0   0  0  1   0  1  0      -1  0  0   0  0 -1   0 -1  0
                       0  1 -1   0  0 -1   1  0 -1       0 -1  1   0  0  1  -1  0  1
                      -1  0  1  -1  1  0  -1  0  0       1  0 -1   1 -1  0   1  0  0
                       0 -1  0   1 -1  0   0 -1  1       0  1  0  -1  1  0   0  1 -1
                       1  0 -1   0  0 -1   0  1 -1      -1  0  1   0  0  1   0 -1  1
                       0  1  0   0  0  1   1  0  0       0 -1  0   0  0 -1  -1  0  0
                       1  0 -1   0  1 -1   0  0 -1      -1  0  1   0 -1  1   0  0  1
                       0 -1  0   0 -1  1   1 -1  0       0  1  0   0  1 -1  -1  1  0
                      -1  0  1  -1  0  0  -1  1  0       1  0 -1   1  0  0   1 -1  0
                       0  1  0   1  0  0   0  0  1       0 -1  0  -1  0  0   0  0 -1
                       0  0 -1   0  1 -1   1  0 -1       0  0  1   0 -1  1  -1  0  1
                       1 -1  0   0 -1  1   0 -1  0      -1  1  0   0  1 -1   0  1  0
                       0  0  1   1  0  0   0  1  0       0  0 -1  -1  0  0   0 -1  0
                      -1  1  0  -1  0  0  -1  0  1       1 -1  0   1  0  0   1  0 -1
                       0  0  1   0  1  0   1  0  0       0  0 -1   0 -1  0  -1  0  0
                       1 -1  0   0 -1  0   0 -1  1      -1  1  0   0  1  0   0  1 -1
                       0  0 -1   1  0 -1   0  1 -1       0  0  1  -1  0  1   0 -1  1
                      -1  1  0  -1  0  1  -1  0  0       1 -1  0   1  0 -1   1  0  0
           toldfe1     1.00000000E-06 Hartree
           toldfe2     0.00000000E+00 Hartree
           toldfe3     0.00000000E+00 Hartree
           tolwfr1     0.00000000E+00
           tolwfr2     1.00000000E-10
           tolwfr3     1.00000000E-10
            typat      1
              wtk1       0.02778    0.02778    0.02778    0.05556    0.02778    0.02778
                         0.05556    0.02778    0.05556    0.05556    0.02778    0.02778
                         0.02778    0.05556    0.02778    0.05556    0.05556    0.05556
                         0.02778    0.02778    0.02778    0.02778    0.02778    0.05556
                         0.05556    0.00926    0.00926    0.00926
              wtk2       1.00000    1.00000    1.00000    1.00000    1.00000    1.00000
                         1.00000    1.00000    1.00000    1.00000    1.00000    1.00000
                         1.00000    1.00000    1.00000    1.00000    1.00000    1.00000
                         1.00000    1.00000    1.00000    1.00000    1.00000    1.00000
                         1.00000    1.00000    1.00000    1.00000    1.00000    1.00000
                         1.00000    1.00000    1.00000    1.00000    1.00000    1.00000
                         1.00000    1.00000    1.00000    1.00000    1.00000    1.00000
                         1.00000    1.00000    1.00000    1.00000    1.00000    1.00000
                         1.00000    1.00000
              wtk3       1.00000    1.00000    1.00000    1.00000    1.00000    1.00000
                         1.00000    1.00000    1.00000    1.00000    1.00000    1.00000
                         1.00000    1.00000    1.00000    1.00000    1.00000    1.00000
                         1.00000    1.00000    1.00000
                       outvars : Printing only first  50 k-points.
            znucl       20.00000

- Timing analysis has been suppressed with timopt=0

 Suggested references for the acknowledgment of ABINIT usage.

 Calculation completed.
.Delivered   4 WARNINGs and   7 COMMENTs to log file.